proyfinal/src/viki/013/experimentInOfficeAgust.take6.output/de1c277a-1dc2-471b-9f32-140a72255236.als.dat
{'cnf.clauses': '118081',
 'cnf.totvars': '69608',
 'conflict literals': '11',
 'conflicts': '8',
 'decisions': '6845',
 'memused.mb': '18.50',
 'outcome': 'UNSAT',
 'propagations': '34955',
 'restarts': '1',
 'solver.msecs': 28,
 'task.msecs': 84}
