proyfinal/src/viki/013/experimentInOfficeAgust.take6.output/de1c277a-1dc2-471b-9f32-140a72255236.als.out
Reading from standard input... Use '--help' for help.
============================[ Problem Statistics ]=============================
|                                                                             |
|  Number of variables:         69608                                         |
|  Number of clauses:          118081                                         |
|  Parse time:                   0.02 s                                       |
|                                                                             |
============================[ Search Statistics ]==============================
| Conflicts |          ORIGINAL         |          LEARNT          | Progress |
|           |    Vars  Clauses Literals |    Limit  Clauses Lit/Cl |          |
===============================================================================
===============================================================================
restarts              : 1
conflicts             : 8              (279 /sec)
decisions             : 6845           (0.00 % random) (238835 /sec)
propagations          : 34955          (1219644 /sec)
conflict literals     : 11             (0.00 % deleted)
Memory used           : 18.50 MB
CPU time              : 0.02866 s

UNSATISFIABLE
